c K to QBF translator. (C)Rice University.
c From input file 7-2.lwb
p cnf 274 734
e 274 1 273 0
a 75 0
e 89 272 12 11 10 9 8 7 6 5 4 3 2 93 268 269 270 271 0
a 76 77 0
e 96 267 30 29 28 27 26 25 24 23 22 21 20 19 18 17 16 15 14 13 102 110 113 116 122 264 265 266 0
a 78 79 80 0
e 129 263 47 46 45 44 43 42 41 40 39 38 37 36 35 34 33 32 31 131 134 138 141 146 149 152 155 158 161 164 166 260 261 262 0
a 81 82 83 0
e 174 259 60 59 58 57 56 55 54 53 52 51 50 49 48 177 183 186 189 192 195 198 200 202 204 206 255 256 257 258 0
a 84 85 0
e 210 254 66 65 64 63 62 61 212 215 218 221 224 227 229 230 253 0
a 86 0
e 231 252 70 69 68 67 232 234 236 238 239 251 0
a 87 0
e 240 250 72 71 242 244 249 0
a 88 0
e 245 248 74 73 246 247 243 241 237 235 233 228 225 226 222 223 220 219 217 216 214 213 211 207 208 209 205 203 201 199 196 197 193 194 191 190 188 187 185 184 179 182 180 181 178 176 175 167 168 169 170 171 172 173 165 162 163 159 160 156 157 153 154 151 150 148 147 143 144 145 142 140 139 136 137 135 133 132 130 123 124 125 126 127 128 117 121 120 118 119 114 115 112 111 104 109 105 106 107 108 103 98 101 99 100 97 94 95 92 90 91 0
274  0 
274 -273 -1  0 
273 -274  0 
1 -274  0 
-273 89 272  0 
-89 273  0 
-272 273  0 
-89 -75 -1  0 
75 89  0 
1 89  0 
272 -93 -268 -269 -270 -271  0 
93 -272  0 
268 -272  0 
269 -272  0 
270 -272  0 
271 -272  0 
-93 -75 92  0 
75 93  0 
-92 93  0 
92 -5 -90 -91 -9 -8 -7  0 
5 -92  0 
90 -92  0 
91 -92  0 
9 -92  0 
8 -92  0 
7 -92  0 
-90 2 6  0 
-2 90  0 
-6 90  0 
-91 3 4  0 
-3 91  0 
-4 91  0 
-268 96 267  0 
-96 268  0 
-267 268  0 
96 -94 -95  0 
94 -96  0 
95 -96  0 
-94 -3 76 -77  0 
3 94  0 
-76 94  0 
77 94  0 
-95 -2 -76 -77  0 
2 95  0 
76 95  0 
77 95  0 
267 -102 -110 -113 -116 -122 -264 -265 -266  0 
102 -267  0 
110 -267  0 
113 -267  0 
116 -267  0 
122 -267  0 
264 -267  0 
265 -267  0 
266 -267  0 
-102 98 101  0 
-98 102  0 
-101 102  0 
-98 -6 97  0 
6 98  0 
-97 98  0 
97 3 2  0 
-3 -97  0 
-2 -97  0 
101 -99 -100  0 
99 -101  0 
100 -101  0 
-99 16 29  0 
-16 99  0 
-29 99  0 
-100 14 19  0 
-14 100  0 
-19 100  0 
-110 104 109  0 
-104 110  0 
-109 110  0 
-104 -5 103  0 
5 104  0 
-103 104  0 
103 3 2  0 
-3 -103  0 
-2 -103  0 
109 -105 -106 -107 -108  0 
105 -109  0 
106 -109  0 
107 -109  0 
108 -109  0 
-105 14 24  0 
-14 105  0 
-24 105  0 
-106 17 30  0 
-17 106  0 
-30 106  0 
-107 16 29  0 
-16 107  0 
-29 107  0 
-108 15 28  0 
-15 108  0 
-28 108  0 
-113 112 25 30  0 
-112 113  0 
-25 113  0 
-30 113  0 
-112 -4 111  0 
4 112  0 
-111 112  0 
111 3 2  0 
-3 -111  0 
-2 -111  0 
-116 114 115  0 
-114 116  0 
-115 116  0 
-114 76 -77  0 
-76 114  0 
77 114  0 
115 -23 -18 -27  0 
23 -115  0 
18 -115  0 
27 -115  0 
-122 117 121  0 
-117 122  0 
-121 122  0 
-117 -76 -77  0 
76 117  0 
77 117  0 
121 -21 -120  0 
21 -121  0 
120 -121  0 
-120 118 119  0 
-118 120  0 
-119 120  0 
118 -22 -26  0 
22 -118  0 
26 -118  0 
119 -20 -13  0 
20 -119  0 
13 -119  0 
-264 129 263  0 
-129 264  0 
-263 264  0 
129 -123 -124 -125 -126 -127 -128  0 
123 -129  0 
124 -129  0 
125 -129  0 
126 -129  0 
127 -129  0 
128 -129  0 
-123 -18 78 -79 80  0 
18 123  0 
-78 123  0 
79 123  0 
-80 123  0 
-124 -17 -78 -79 80  0 
17 124  0 
78 124  0 
79 124  0 
-80 124  0 
-125 -16 78 79 -80  0 
16 125  0 
-78 125  0 
-79 125  0 
80 125  0 
-126 -15 -78 79 -80  0 
15 126  0 
78 126  0 
-79 126  0 
80 126  0 
-127 -14 78 -79 -80  0 
14 127  0 
-78 127  0 
79 127  0 
80 127  0 
-128 -13 -78 -79 -80  0 
13 128  0 
78 128  0 
79 128  0 
80 128  0 
263 -131 -134 -138 -141 -146 -149 -152 -155 -158 -161 -164 -166 -260 -261 -262  0 
131 -263  0 
134 -263  0 
138 -263  0 
141 -263  0 
146 -263  0 
149 -263  0 
152 -263  0 
155 -263  0 
158 -263  0 
161 -263  0 
164 -263  0 
166 -263  0 
260 -263  0 
261 -263  0 
262 -263  0 
-131 -25 130  0 
25 131  0 
-130 131  0 
130 18 17 16 15 14 13  0 
-18 -130  0 
-17 -130  0 
-16 -130  0 
-15 -130  0 
-14 -130  0 
-13 -130  0 
-134 133 46  0 
-133 134  0 
-46 134  0 
-133 -24 132  0 
24 133  0 
-132 133  0 
132 18 17 16 15 14 13  0 
-18 -132  0 
-17 -132  0 
-16 -132  0 
-15 -132  0 
-14 -132  0 
-13 -132  0 
-138 136 137 39  0 
-136 138  0 
-137 138  0 
-39 138  0 
-136 -23 135  0 
23 136  0 
-135 136  0 
135 18 17 16 15 14 13  0 
-18 -135  0 
-17 -135  0 
-16 -135  0 
-15 -135  0 
-14 -135  0 
-13 -135  0 
137 -37 -44  0 
37 -137  0 
44 -137  0 
-141 140 43 42  0 
-140 141  0 
-43 141  0 
-42 141  0 
-140 -22 139  0 
22 140  0 
-139 140  0 
139 18 17 16 15 14 13  0 
-18 -139  0 
-17 -139  0 
-16 -139  0 
-15 -139  0 
-14 -139  0 
-13 -139  0 
-146 143 41 144 145  0 
-143 146  0 
-41 146  0 
-144 146  0 
-145 146  0 
-143 -21 142  0 
21 143  0 
-142 143  0 
142 18 17 16 15 14 13  0 
-18 -142  0 
-17 -142  0 
-16 -142  0 
-15 -142  0 
-14 -142  0 
-13 -142  0 
144 -40 -43  0 
40 -144  0 
43 -144  0 
145 -38 -31  0 
38 -145  0 
31 -145  0 
-149 148 36 46  0 
-148 149  0 
-36 149  0 
-46 149  0 
-148 -20 147  0 
20 148  0 
-147 148  0 
147 18 17 16 15 14 13  0 
-18 -147  0 
-17 -147  0 
-16 -147  0 
-15 -147  0 
-14 -147  0 
-13 -147  0 
-152 151 38  0 
-151 152  0 
-38 152  0 
-151 -19 150  0 
19 151  0 
-150 151  0 
150 18 17 16 15 14 13  0 
-18 -150  0 
-17 -150  0 
-16 -150  0 
-15 -150  0 
-14 -150  0 
-13 -150  0 
-155 153 154  0 
-153 155  0 
-154 155  0 
-153 -78 -79 80  0 
78 153  0 
79 153  0 
-80 153  0 
154 -47 -34  0 
47 -154  0 
34 -154  0 
-158 156 157  0 
-156 158  0 
-157 158  0 
-156 78 79 -80  0 
-78 156  0 
-79 156  0 
80 156  0 
157 -46 -33  0 
46 -157  0 
33 -157  0 
-161 159 160  0 
-159 161  0 
-160 161  0 
-159 -78 79 -80  0 
78 159  0 
-79 159  0 
80 159  0 
160 -45 -32  0 
45 -160  0 
32 -160  0 
-164 162 163  0 
-162 164  0 
-163 164  0 
-162 78 -79 -80  0 
-78 162  0 
79 162  0 
80 162  0 
163 -40 -43  0 
40 -163  0 
43 -163  0 
-166 165 35  0 
-165 166  0 
-35 166  0 
-165 -78 -79 -80  0 
78 165  0 
79 165  0 
80 165  0 
-260 174 259  0 
-174 260  0 
-259 260  0 
174 -167 -168 -169 -170 -171 -172 -173  0 
167 -174  0 
168 -174  0 
169 -174  0 
170 -174  0 
171 -174  0 
172 -174  0 
173 -174  0 
-167 -37 -81 82 83  0 
37 167  0 
81 167  0 
-82 167  0 
-83 167  0 
-168 -36 81 -82 83  0 
36 168  0 
-81 168  0 
82 168  0 
-83 168  0 
-169 -35 -81 -82 83  0 
35 169  0 
81 169  0 
82 169  0 
-83 169  0 
-170 -34 81 82 -83  0 
34 170  0 
-81 170  0 
-82 170  0 
83 170  0 
-171 -33 -81 82 -83  0 
33 171  0 
81 171  0 
-82 171  0 
83 171  0 
-172 -32 81 -82 -83  0 
32 172  0 
-81 172  0 
82 172  0 
83 172  0 
-173 -31 -81 -82 -83  0 
31 173  0 
81 173  0 
82 173  0 
83 173  0 
259 -177 -183 -186 -189 -192 -195 -198 -200 -202 -204 -206 -255 -256 -257 -258  0 
177 -259  0 
183 -259  0 
186 -259  0 
189 -259  0 
192 -259  0 
195 -259  0 
198 -259  0 
200 -259  0 
202 -259  0 
204 -259  0 
206 -259  0 
255 -259  0 
256 -259  0 
257 -259  0 
258 -259  0 
-177 176 59  0 
-176 177  0 
-59 177  0 
-176 -42 175  0 
42 176  0 
-175 176  0 
175 37 36 35 34 33 32 31  0 
-37 -175  0 
-36 -175  0 
-35 -175  0 
-34 -175  0 
-33 -175  0 
-32 -175  0 
-31 -175  0 
-183 179 182  0 
-179 183  0 
-182 183  0 
-179 -41 178  0 
41 179  0 
-178 179  0 
178 37 36 35 34 33 32 31  0 
-37 -178  0 
-36 -178  0 
-35 -178  0 
-34 -178  0 
-33 -178  0 
-32 -178  0 
-31 -178  0 
182 -180 -181  0 
180 -182  0 
181 -182  0 
-180 50 59  0 
-50 180  0 
-59 180  0 
-181 49 51  0 
-49 181  0 
-51 181  0 
-186 185 56 53  0 
-185 186  0 
-56 186  0 
-53 186  0 
-185 -40 184  0 
40 185  0 
-184 185  0 
184 37 36 35 34 33 32 31  0 
-37 -184  0 
-36 -184  0 
-35 -184  0 
-34 -184  0 
-33 -184  0 
-32 -184  0 
-31 -184  0 
-189 188 54 60  0 
-188 189  0 
-54 189  0 
-60 189  0 
-188 -39 187  0 
39 188  0 
-187 188  0 
187 37 36 35 34 33 32 31  0 
-37 -187  0 
-36 -187  0 
-35 -187  0 
-34 -187  0 
-33 -187  0 
-32 -187  0 
-31 -187  0 
-192 191 50 59  0 
-191 192  0 
-50 192  0 
-59 192  0 
-191 -38 190  0 
38 191  0 
-190 191  0 
190 37 36 35 34 33 32 31  0 
-37 -190  0 
-36 -190  0 
-35 -190  0 
-34 -190  0 
-33 -190  0 
-32 -190  0 
-31 -190  0 
-195 193 194  0 
-193 195  0 
-194 195  0 
-193 81 -82 83  0 
-81 193  0 
82 193  0 
-83 193  0 
194 -59 -48  0 
59 -194  0 
48 -194  0 
-198 196 197  0 
-196 198  0 
-197 198  0 
-196 -81 -82 83  0 
81 196  0 
82 196  0 
-83 196  0 
197 -52 -56  0 
52 -197  0 
56 -197  0 
-200 199 57  0 
-199 200  0 
-57 200  0 
-199 81 82 -83  0 
-81 199  0 
-82 199  0 
83 199  0 
-202 201 56  0 
-201 202  0 
-56 202  0 
-201 -81 82 -83  0 
81 201  0 
-82 201  0 
83 201  0 
-204 203 55  0 
-203 204  0 
-55 204  0 
-203 81 -82 -83  0 
-81 203  0 
82 203  0 
83 203  0 
-206 205 49  0 
-205 206  0 
-49 206  0 
-205 -81 -82 -83  0 
81 205  0 
82 205  0 
83 205  0 
-255 210 254  0 
-210 255  0 
-254 255  0 
210 -207 -208 -209  0 
207 -210  0 
208 -210  0 
209 -210  0 
-207 -50 -84 85  0 
50 207  0 
84 207  0 
-85 207  0 
-208 -49 84 -85  0 
49 208  0 
-84 208  0 
85 208  0 
-209 -48 -84 -85  0 
48 209  0 
84 209  0 
85 209  0 
254 -212 -215 -218 -221 -224 -227 -229 -230 -253  0 
212 -254  0 
215 -254  0 
218 -254  0 
221 -254  0 
224 -254  0 
227 -254  0 
229 -254  0 
230 -254  0 
253 -254  0 
-212 -54 211  0 
54 212  0 
-211 212  0 
211 50 49 48  0 
-50 -211  0 
-49 -211  0 
-48 -211  0 
-215 214 66  0 
-214 215  0 
-66 215  0 
-214 -53 213  0 
53 214  0 
-213 214  0 
213 50 49 48  0 
-50 -213  0 
-49 -213  0 
-48 -213  0 
-218 217 65 64  0 
-217 218  0 
-65 218  0 
-64 218  0 
-217 -52 216  0 
52 217  0 
-216 217  0 
216 50 49 48  0 
-50 -216  0 
-49 -216  0 
-48 -216  0 
-221 220 62  0 
-220 221  0 
-62 221  0 
-220 -51 219  0 
51 220  0 
-219 220  0 
219 50 49 48  0 
-50 -219  0 
-49 -219  0 
-48 -219  0 
-224 222 223  0 
-222 224  0 
-223 224  0 
-222 -84 85  0 
84 222  0 
-85 222  0 
223 -66 -61  0 
66 -223  0 
61 -223  0 
-227 225 226  0 
-225 227  0 
-226 227  0 
-225 84 -85  0 
-84 225  0 
85 225  0 
226 -63 -65  0 
63 -226  0 
65 -226  0 
-229 228 65  0 
-228 229  0 
-65 229  0 
-228 -84 -85  0 
84 228  0 
85 228  0 
-230 -65 -66  0 
65 230  0 
66 230  0 
-253 231 252  0 
-231 253  0 
-252 253  0 
-231 -86 -61  0 
86 231  0 
61 231  0 
252 -232 -234 -236 -238 -239 -251  0 
232 -252  0 
234 -252  0 
236 -252  0 
238 -252  0 
239 -252  0 
251 -252  0 
-232 -86 69  0 
86 232  0 
-69 232  0 
-234 233 70  0 
-233 234  0 
-70 234  0 
-233 -64 -61  0 
64 233  0 
61 233  0 
-236 235 69 68  0 
-235 236  0 
-69 236  0 
-68 236  0 
-235 -63 -61  0 
63 235  0 
61 235  0 
-238 237 67 70  0 
-237 238  0 
-67 238  0 
-70 238  0 
-237 -62 -61  0 
62 237  0 
61 237  0 
-239 -69 -70  0 
69 239  0 
70 239  0 
-251 240 250  0 
-240 251  0 
-250 251  0 
-240 -87 -67  0 
87 240  0 
67 240  0 
250 -242 -244 -249  0 
242 -250  0 
244 -250  0 
249 -250  0 
-242 241 72  0 
-241 242  0 
-72 242  0 
-241 -68 -67  0 
68 241  0 
67 241  0 
-244 -87 243  0 
87 244  0 
-243 244  0 
243 -72 -71  0 
72 -243  0 
71 -243  0 
-249 245 248  0 
-245 249  0 
-248 249  0 
-245 -88 -71  0 
88 245  0 
71 245  0 
248 -246 -247  0 
246 -248  0 
247 -248  0 
-246 -88 73  0 
88 246  0 
-73 246  0 
-247 -73 -74  0 
73 247  0 
74 247  0 
-256 -57 -60  0 
57 256  0 
60 256  0 
-257 -56 -59  0 
56 257  0 
59 257  0 
-258 -55 -58  0 
55 258  0 
58 258  0 
-261 -44 -47  0 
44 261  0 
47 261  0 
-262 -43 -46  0 
43 262  0 
46 262  0 
-265 -27 -30  0 
27 265  0 
30 265  0 
-266 -26 -29  0 
26 266  0 
29 266  0 
-269 -9 -12  0 
9 269  0 
12 269  0 
-270 -8 -11  0 
8 270  0 
11 270  0 
-271 -7 -10  0 
7 271  0 
10 271  0 
